\ENCODING=ISO-8859-1
\Problem name: 

Minimize
 obj: y.0.1 + y.0.2 + y.0.3 + y.0.4 + y.0.5 + y.0.6 + y.0.7 + y.0.8 + y.0.9
      + y.0.10 + y.1.2 + y.1.3 + y.1.4 + y.1.5 + y.1.6 + y.1.7 + y.1.8 + y.1.9
      + y.1.10 + y.2.3 + y.2.4 + y.2.5 + y.2.6 + y.2.7 + y.2.8 + y.2.9 + y.2.10
      + y.3.4 + y.3.5 + y.3.6 + y.3.7 + y.3.8 + y.3.9 + y.3.10 + y.4.5 + y.4.6
      + y.4.7 + y.4.8 + y.4.9 + y.4.10 + y.5.6 + y.5.7 + y.5.8 + y.5.9 + y.5.10
      + y.6.7 + y.6.8 + y.6.9 + y.6.10 + y.7.8 + y.7.9 + y.7.10 + y.8.9
      + y.8.10 + y.9.10
Subject To
 c0#0:     x.0.1 + x.1.0  = 1
 c1#1:     x.0.2 + x.2.0  = 0
 c2#2:     x.0.3 + x.3.0  = 0
 c3#3:     x.0.4 + x.4.0  = 0
 c4#4:     x.0.5 + x.5.0  = 0
 c5#5:     x.0.6 + x.6.0  = 0
 c6#6:     x.0.7 + x.7.0  = 0
 c7#7:     x.0.8 + x.8.0  = 0
 c8#8:     x.0.9 + x.9.0  = 0
 c9#9:     x.0.10 + x.10.0  = 0
 c10#10:   x.1.2 + x.2.1  = 1
 c11#11:   x.1.3 + x.3.1  = 1
 c12#12:   x.1.4 + x.4.1  = 0
 c13#13:   x.1.5 + x.5.1  = 1
 c14#14:   x.1.6 + x.6.1  = 0
 c15#15:   x.1.7 + x.7.1  = 0
 c16#16:   x.1.8 + x.8.1  = 0
 c17#17:   x.1.9 + x.9.1  = 0
 c18#18:   x.1.10 + x.10.1  = 0
 c19#19:   x.2.3 + x.3.2  = 0
 c20#20:   x.2.4 + x.4.2  = 0
 c21#21:   x.2.5 + x.5.2  = 0
 c22#22:   x.2.6 + x.6.2  = 0
 c23#23:   x.2.7 + x.7.2  = 0
 c24#24:   x.2.8 + x.8.2  = 0
 c25#25:   x.2.9 + x.9.2  = 0
 c26#26:   x.2.10 + x.10.2  = 0
 c27#27:   x.3.4 + x.4.3  = 0
 c28#28:   x.3.5 + x.5.3  = 0
 c29#29:   x.3.6 + x.6.3  = 0
 c30#30:   x.3.7 + x.7.3  = 0
 c31#31:   x.3.8 + x.8.3  = 0
 c32#32:   x.3.9 + x.9.3  = 0
 c33#33:   x.3.10 + x.10.3  = 0
 c34#34:   x.4.5 + x.5.4  = 0
 c35#35:   x.4.6 + x.6.4  = 0
 c36#36:   x.4.7 + x.7.4  = 0
 c37#37:   x.4.8 + x.8.4  = 0
 c38#38:   x.4.9 + x.9.4  = 0
 c39#39:   x.4.10 + x.10.4  = 1
 c40#40:   x.5.6 + x.6.5  = 0
 c41#41:   x.5.7 + x.7.5  = 0
 c42#42:   x.5.8 + x.8.5  = 0
 c43#43:   x.5.9 + x.9.5  = 0
 c44#44:   x.5.10 + x.10.5  = 0
 c45#45:   x.6.7 + x.7.6  = 0
 c46#46:   x.6.8 + x.8.6  = 0
 c47#47:   x.6.9 + x.9.6  = 0
 c48#48:   x.6.10 + x.10.6  = 1
 c49#49:   x.7.8 + x.8.7  = 0
 c50#50:   x.7.9 + x.9.7  = 0
 c51#51:   x.7.10 + x.10.7  = 1
 c52#52:   x.8.9 + x.9.8  = 0
 c53#53:   x.8.10 + x.10.8  = 1
 c54#54:   x.9.10 + x.10.9  = 1
 d0#55:    - y.0.1 + x.0.2 + x.0.3 + x.0.4 + x.0.5 + x.0.6 + x.0.7 + x.0.8
           + x.0.9 + x.0.10 <= 0
 d1#56:    x.0.1 - y.0.2 + x.0.3 + x.0.4 + x.0.5 + x.0.6 + x.0.7 + x.0.8
           + x.0.9 + x.0.10 <= 1
 d2#57:    x.0.1 + x.0.2 - y.0.3 + x.0.4 + x.0.5 + x.0.6 + x.0.7 + x.0.8
           + x.0.9 + x.0.10 <= 1
 d3#58:    x.0.1 + x.0.2 + x.0.3 - y.0.4 + x.0.5 + x.0.6 + x.0.7 + x.0.8
           + x.0.9 + x.0.10 <= 1
 d4#59:    x.0.1 + x.0.2 + x.0.3 + x.0.4 - y.0.5 + x.0.6 + x.0.7 + x.0.8
           + x.0.9 + x.0.10 <= 1
 d5#60:    x.0.1 + x.0.2 + x.0.3 + x.0.4 + x.0.5 - y.0.6 + x.0.7 + x.0.8
           + x.0.9 + x.0.10 <= 1
 d6#61:    x.0.1 + x.0.2 + x.0.3 + x.0.4 + x.0.5 + x.0.6 - y.0.7 + x.0.8
           + x.0.9 + x.0.10 <= 1
 d7#62:    x.0.1 + x.0.2 + x.0.3 + x.0.4 + x.0.5 + x.0.6 + x.0.7 - y.0.8
           + x.0.9 + x.0.10 <= 1
 d8#63:    x.0.1 + x.0.2 + x.0.3 + x.0.4 + x.0.5 + x.0.6 + x.0.7 + x.0.8
           - y.0.9 + x.0.10 <= 1
 d9#64:    x.0.1 + x.0.2 + x.0.3 + x.0.4 + x.0.5 + x.0.6 + x.0.7 + x.0.8
           + x.0.9 - y.0.10 <= 1
 d10#65:   x.1.0 - y.1.2 + x.1.3 + x.1.4 + x.1.5 + x.1.6 + x.1.7 + x.1.8
           + x.1.9 + x.1.10 <= 0
 d11#66:   x.1.0 + x.1.2 - y.1.3 + x.1.4 + x.1.5 + x.1.6 + x.1.7 + x.1.8
           + x.1.9 + x.1.10 <= 0
 d12#67:   x.1.0 + x.1.2 + x.1.3 - y.1.4 + x.1.5 + x.1.6 + x.1.7 + x.1.8
           + x.1.9 + x.1.10 <= 1
 d13#68:   x.1.0 + x.1.2 + x.1.3 + x.1.4 - y.1.5 + x.1.6 + x.1.7 + x.1.8
           + x.1.9 + x.1.10 <= 0
 d14#69:   x.1.0 + x.1.2 + x.1.3 + x.1.4 + x.1.5 - y.1.6 + x.1.7 + x.1.8
           + x.1.9 + x.1.10 <= 1
 d15#70:   x.1.0 + x.1.2 + x.1.3 + x.1.4 + x.1.5 + x.1.6 - y.1.7 + x.1.8
           + x.1.9 + x.1.10 <= 1
 d16#71:   x.1.0 + x.1.2 + x.1.3 + x.1.4 + x.1.5 + x.1.6 + x.1.7 - y.1.8
           + x.1.9 + x.1.10 <= 1
 d17#72:   x.1.0 + x.1.2 + x.1.3 + x.1.4 + x.1.5 + x.1.6 + x.1.7 + x.1.8
           - y.1.9 + x.1.10 <= 1
 d18#73:   x.1.0 + x.1.2 + x.1.3 + x.1.4 + x.1.5 + x.1.6 + x.1.7 + x.1.8
           + x.1.9 - y.1.10 <= 1
 d19#74:   x.2.0 + x.2.1 - y.2.3 + x.2.4 + x.2.5 + x.2.6 + x.2.7 + x.2.8
           + x.2.9 + x.2.10 <= 1
 d20#75:   x.2.0 + x.2.1 + x.2.3 - y.2.4 + x.2.5 + x.2.6 + x.2.7 + x.2.8
           + x.2.9 + x.2.10 <= 1
 d21#76:   x.2.0 + x.2.1 + x.2.3 + x.2.4 - y.2.5 + x.2.6 + x.2.7 + x.2.8
           + x.2.9 + x.2.10 <= 1
 d22#77:   x.2.0 + x.2.1 + x.2.3 + x.2.4 + x.2.5 - y.2.6 + x.2.7 + x.2.8
           + x.2.9 + x.2.10 <= 1
 d23#78:   x.2.0 + x.2.1 + x.2.3 + x.2.4 + x.2.5 + x.2.6 - y.2.7 + x.2.8
           + x.2.9 + x.2.10 <= 1
 d24#79:   x.2.0 + x.2.1 + x.2.3 + x.2.4 + x.2.5 + x.2.6 + x.2.7 - y.2.8
           + x.2.9 + x.2.10 <= 1
 d25#80:   x.2.0 + x.2.1 + x.2.3 + x.2.4 + x.2.5 + x.2.6 + x.2.7 + x.2.8
           - y.2.9 + x.2.10 <= 1
 d26#81:   x.2.0 + x.2.1 + x.2.3 + x.2.4 + x.2.5 + x.2.6 + x.2.7 + x.2.8
           + x.2.9 - y.2.10 <= 1
 d27#82:   x.3.0 + x.3.1 + x.3.2 - y.3.4 + x.3.5 + x.3.6 + x.3.7 + x.3.8
           + x.3.9 + x.3.10 <= 1
 d28#83:   x.3.0 + x.3.1 + x.3.2 + x.3.4 - y.3.5 + x.3.6 + x.3.7 + x.3.8
           + x.3.9 + x.3.10 <= 1
 d29#84:   x.3.0 + x.3.1 + x.3.2 + x.3.4 + x.3.5 - y.3.6 + x.3.7 + x.3.8
           + x.3.9 + x.3.10 <= 1
 d30#85:   x.3.0 + x.3.1 + x.3.2 + x.3.4 + x.3.5 + x.3.6 - y.3.7 + x.3.8
           + x.3.9 + x.3.10 <= 1
 d31#86:   x.3.0 + x.3.1 + x.3.2 + x.3.4 + x.3.5 + x.3.6 + x.3.7 - y.3.8
           + x.3.9 + x.3.10 <= 1
 d32#87:   x.3.0 + x.3.1 + x.3.2 + x.3.4 + x.3.5 + x.3.6 + x.3.7 + x.3.8
           - y.3.9 + x.3.10 <= 1
 d33#88:   x.3.0 + x.3.1 + x.3.2 + x.3.4 + x.3.5 + x.3.6 + x.3.7 + x.3.8
           + x.3.9 - y.3.10 <= 1
 d34#89:   x.4.0 + x.4.1 + x.4.2 + x.4.3 - y.4.5 + x.4.6 + x.4.7 + x.4.8
           + x.4.9 + x.4.10 <= 1
 d35#90:   x.4.0 + x.4.1 + x.4.2 + x.4.3 + x.4.5 - y.4.6 + x.4.7 + x.4.8
           + x.4.9 + x.4.10 <= 1
 d36#91:   x.4.0 + x.4.1 + x.4.2 + x.4.3 + x.4.5 + x.4.6 - y.4.7 + x.4.8
           + x.4.9 + x.4.10 <= 1
 d37#92:   x.4.0 + x.4.1 + x.4.2 + x.4.3 + x.4.5 + x.4.6 + x.4.7 - y.4.8
           + x.4.9 + x.4.10 <= 1
 d38#93:   x.4.0 + x.4.1 + x.4.2 + x.4.3 + x.4.5 + x.4.6 + x.4.7 + x.4.8
           - y.4.9 + x.4.10 <= 1
 d39#94:   x.4.0 + x.4.1 + x.4.2 + x.4.3 + x.4.5 + x.4.6 + x.4.7 + x.4.8
           + x.4.9 - y.4.10 <= 0
 d40#95:   x.5.0 + x.5.1 + x.5.2 + x.5.3 + x.5.4 - y.5.6 + x.5.7 + x.5.8
           + x.5.9 + x.5.10 <= 1
 d41#96:   x.5.0 + x.5.1 + x.5.2 + x.5.3 + x.5.4 + x.5.6 - y.5.7 + x.5.8
           + x.5.9 + x.5.10 <= 1
 d42#97:   x.5.0 + x.5.1 + x.5.2 + x.5.3 + x.5.4 + x.5.6 + x.5.7 - y.5.8
           + x.5.9 + x.5.10 <= 1
 d43#98:   x.5.0 + x.5.1 + x.5.2 + x.5.3 + x.5.4 + x.5.6 + x.5.7 + x.5.8
           - y.5.9 + x.5.10 <= 1
 d44#99:   x.5.0 + x.5.1 + x.5.2 + x.5.3 + x.5.4 + x.5.6 + x.5.7 + x.5.8
           + x.5.9 - y.5.10 <= 1
 d45#100:  x.6.0 + x.6.1 + x.6.2 + x.6.3 + x.6.4 + x.6.5 - y.6.7 + x.6.8
           + x.6.9 + x.6.10 <= 1
 d46#101:  x.6.0 + x.6.1 + x.6.2 + x.6.3 + x.6.4 + x.6.5 + x.6.7 - y.6.8
           + x.6.9 + x.6.10 <= 1
 d47#102:  x.6.0 + x.6.1 + x.6.2 + x.6.3 + x.6.4 + x.6.5 + x.6.7 + x.6.8
           - y.6.9 + x.6.10 <= 1
 d48#103:  x.6.0 + x.6.1 + x.6.2 + x.6.3 + x.6.4 + x.6.5 + x.6.7 + x.6.8
           + x.6.9 - y.6.10 <= 0
 d49#104:  x.7.0 + x.7.1 + x.7.2 + x.7.3 + x.7.4 + x.7.5 + x.7.6 - y.7.8
           + x.7.9 + x.7.10 <= 1
 d50#105:  x.7.0 + x.7.1 + x.7.2 + x.7.3 + x.7.4 + x.7.5 + x.7.6 + x.7.8
           - y.7.9 + x.7.10 <= 1
 d51#106:  x.7.0 + x.7.1 + x.7.2 + x.7.3 + x.7.4 + x.7.5 + x.7.6 + x.7.8
           + x.7.9 - y.7.10 <= 0
 d52#107:  x.8.0 + x.8.1 + x.8.2 + x.8.3 + x.8.4 + x.8.5 + x.8.6 + x.8.7
           - y.8.9 + x.8.10 <= 1
 d53#108:  x.8.0 + x.8.1 + x.8.2 + x.8.3 + x.8.4 + x.8.5 + x.8.6 + x.8.7
           + x.8.9 - y.8.10 <= 0
 d54#109:  x.9.0 + x.9.1 + x.9.2 + x.9.3 + x.9.4 + x.9.5 + x.9.6 + x.9.7
           + x.9.8 - y.9.10 <= 0
 _e0#110:  - y.0.1 + x.1.2 + x.1.3 + x.1.4 + x.1.5 + x.1.6 + x.1.7 + x.1.8
           + x.1.9 + x.1.10 <= 0
 _e1#111:  - y.0.2 + x.2.1 + x.2.3 + x.2.4 + x.2.5 + x.2.6 + x.2.7 + x.2.8
           + x.2.9 + x.2.10 <= 1
 _e2#112:  - y.0.3 + x.3.1 + x.3.2 + x.3.4 + x.3.5 + x.3.6 + x.3.7 + x.3.8
           + x.3.9 + x.3.10 <= 1
 _e3#113:  - y.0.4 + x.4.1 + x.4.2 + x.4.3 + x.4.5 + x.4.6 + x.4.7 + x.4.8
           + x.4.9 + x.4.10 <= 1
 _e4#114:  - y.0.5 + x.5.1 + x.5.2 + x.5.3 + x.5.4 + x.5.6 + x.5.7 + x.5.8
           + x.5.9 + x.5.10 <= 1
 _e5#115:  - y.0.6 + x.6.1 + x.6.2 + x.6.3 + x.6.4 + x.6.5 + x.6.7 + x.6.8
           + x.6.9 + x.6.10 <= 1
 _e6#116:  - y.0.7 + x.7.1 + x.7.2 + x.7.3 + x.7.4 + x.7.5 + x.7.6 + x.7.8
           + x.7.9 + x.7.10 <= 1
 _e7#117:  - y.0.8 + x.8.1 + x.8.2 + x.8.3 + x.8.4 + x.8.5 + x.8.6 + x.8.7
           + x.8.9 + x.8.10 <= 1
 _e8#118:  - y.0.9 + x.9.1 + x.9.2 + x.9.3 + x.9.4 + x.9.5 + x.9.6 + x.9.7
           + x.9.8 + x.9.10 <= 1
 _e9#119:  - y.0.10 + x.10.1 + x.10.2 + x.10.3 + x.10.4 + x.10.5 + x.10.6
           + x.10.7 + x.10.8 + x.10.9 <= 1
 _e10#120: x.2.0 - y.1.2 + x.2.3 + x.2.4 + x.2.5 + x.2.6 + x.2.7 + x.2.8
           + x.2.9 + x.2.10 <= 0
 _e11#121: x.3.0 - y.1.3 + x.3.2 + x.3.4 + x.3.5 + x.3.6 + x.3.7 + x.3.8
           + x.3.9 + x.3.10 <= 0
 _e12#122: x.4.0 - y.1.4 + x.4.2 + x.4.3 + x.4.5 + x.4.6 + x.4.7 + x.4.8
           + x.4.9 + x.4.10 <= 1
 _e13#123: x.5.0 - y.1.5 + x.5.2 + x.5.3 + x.5.4 + x.5.6 + x.5.7 + x.5.8
           + x.5.9 + x.5.10 <= 0
 _e14#124: x.6.0 - y.1.6 + x.6.2 + x.6.3 + x.6.4 + x.6.5 + x.6.7 + x.6.8
           + x.6.9 + x.6.10 <= 1
 _e15#125: x.7.0 - y.1.7 + x.7.2 + x.7.3 + x.7.4 + x.7.5 + x.7.6 + x.7.8
           + x.7.9 + x.7.10 <= 1
 _e16#126: x.8.0 - y.1.8 + x.8.2 + x.8.3 + x.8.4 + x.8.5 + x.8.6 + x.8.7
           + x.8.9 + x.8.10 <= 1
 _e17#127: x.9.0 - y.1.9 + x.9.2 + x.9.3 + x.9.4 + x.9.5 + x.9.6 + x.9.7
           + x.9.8 + x.9.10 <= 1
 _e18#128: x.10.0 - y.1.10 + x.10.2 + x.10.3 + x.10.4 + x.10.5 + x.10.6
           + x.10.7 + x.10.8 + x.10.9 <= 1
 _e19#129: x.3.0 + x.3.1 - y.2.3 + x.3.4 + x.3.5 + x.3.6 + x.3.7 + x.3.8
           + x.3.9 + x.3.10 <= 1
 _e20#130: x.4.0 + x.4.1 - y.2.4 + x.4.3 + x.4.5 + x.4.6 + x.4.7 + x.4.8
           + x.4.9 + x.4.10 <= 1
 _e21#131: x.5.0 + x.5.1 - y.2.5 + x.5.3 + x.5.4 + x.5.6 + x.5.7 + x.5.8
           + x.5.9 + x.5.10 <= 1
 _e22#132: x.6.0 + x.6.1 - y.2.6 + x.6.3 + x.6.4 + x.6.5 + x.6.7 + x.6.8
           + x.6.9 + x.6.10 <= 1
 _e23#133: x.7.0 + x.7.1 - y.2.7 + x.7.3 + x.7.4 + x.7.5 + x.7.6 + x.7.8
           + x.7.9 + x.7.10 <= 1
 _e24#134: x.8.0 + x.8.1 - y.2.8 + x.8.3 + x.8.4 + x.8.5 + x.8.6 + x.8.7
           + x.8.9 + x.8.10 <= 1
 _e25#135: x.9.0 + x.9.1 - y.2.9 + x.9.3 + x.9.4 + x.9.5 + x.9.6 + x.9.7
           + x.9.8 + x.9.10 <= 1
 _e26#136: x.10.0 + x.10.1 - y.2.10 + x.10.3 + x.10.4 + x.10.5 + x.10.6
           + x.10.7 + x.10.8 + x.10.9 <= 1
 _e27#137: x.4.0 + x.4.1 + x.4.2 - y.3.4 + x.4.5 + x.4.6 + x.4.7 + x.4.8
           + x.4.9 + x.4.10 <= 1
 _e28#138: x.5.0 + x.5.1 + x.5.2 - y.3.5 + x.5.4 + x.5.6 + x.5.7 + x.5.8
           + x.5.9 + x.5.10 <= 1
 _e29#139: x.6.0 + x.6.1 + x.6.2 - y.3.6 + x.6.4 + x.6.5 + x.6.7 + x.6.8
           + x.6.9 + x.6.10 <= 1
 _e30#140: x.7.0 + x.7.1 + x.7.2 - y.3.7 + x.7.4 + x.7.5 + x.7.6 + x.7.8
           + x.7.9 + x.7.10 <= 1
 _e31#141: x.8.0 + x.8.1 + x.8.2 - y.3.8 + x.8.4 + x.8.5 + x.8.6 + x.8.7
           + x.8.9 + x.8.10 <= 1
 _e32#142: x.9.0 + x.9.1 + x.9.2 - y.3.9 + x.9.4 + x.9.5 + x.9.6 + x.9.7
           + x.9.8 + x.9.10 <= 1
 _e33#143: x.10.0 + x.10.1 + x.10.2 - y.3.10 + x.10.4 + x.10.5 + x.10.6
           + x.10.7 + x.10.8 + x.10.9 <= 1
 _e34#144: x.5.0 + x.5.1 + x.5.2 + x.5.3 - y.4.5 + x.5.6 + x.5.7 + x.5.8
           + x.5.9 + x.5.10 <= 1
 _e35#145: x.6.0 + x.6.1 + x.6.2 + x.6.3 - y.4.6 + x.6.5 + x.6.7 + x.6.8
           + x.6.9 + x.6.10 <= 1
 _e36#146: x.7.0 + x.7.1 + x.7.2 + x.7.3 - y.4.7 + x.7.5 + x.7.6 + x.7.8
           + x.7.9 + x.7.10 <= 1
 _e37#147: x.8.0 + x.8.1 + x.8.2 + x.8.3 - y.4.8 + x.8.5 + x.8.6 + x.8.7
           + x.8.9 + x.8.10 <= 1
 _e38#148: x.9.0 + x.9.1 + x.9.2 + x.9.3 - y.4.9 + x.9.5 + x.9.6 + x.9.7
           + x.9.8 + x.9.10 <= 1
 _e39#149: x.10.0 + x.10.1 + x.10.2 + x.10.3 - y.4.10 + x.10.5 + x.10.6
           + x.10.7 + x.10.8 + x.10.9 <= 0
 _e40#150: x.6.0 + x.6.1 + x.6.2 + x.6.3 + x.6.4 - y.5.6 + x.6.7 + x.6.8
           + x.6.9 + x.6.10 <= 1
 _e41#151: x.7.0 + x.7.1 + x.7.2 + x.7.3 + x.7.4 - y.5.7 + x.7.6 + x.7.8
           + x.7.9 + x.7.10 <= 1
 _e42#152: x.8.0 + x.8.1 + x.8.2 + x.8.3 + x.8.4 - y.5.8 + x.8.6 + x.8.7
           + x.8.9 + x.8.10 <= 1
 _e43#153: x.9.0 + x.9.1 + x.9.2 + x.9.3 + x.9.4 - y.5.9 + x.9.6 + x.9.7
           + x.9.8 + x.9.10 <= 1
 _e44#154: x.10.0 + x.10.1 + x.10.2 + x.10.3 + x.10.4 - y.5.10 + x.10.6
           + x.10.7 + x.10.8 + x.10.9 <= 1
 _e45#155: x.7.0 + x.7.1 + x.7.2 + x.7.3 + x.7.4 + x.7.5 - y.6.7 + x.7.8
           + x.7.9 + x.7.10 <= 1
 _e46#156: x.8.0 + x.8.1 + x.8.2 + x.8.3 + x.8.4 + x.8.5 - y.6.8 + x.8.7
           + x.8.9 + x.8.10 <= 1
 _e47#157: x.9.0 + x.9.1 + x.9.2 + x.9.3 + x.9.4 + x.9.5 - y.6.9 + x.9.7
           + x.9.8 + x.9.10 <= 1
 _e48#158: x.10.0 + x.10.1 + x.10.2 + x.10.3 + x.10.4 + x.10.5 - y.6.10
           + x.10.7 + x.10.8 + x.10.9 <= 0
 _e49#159: x.8.0 + x.8.1 + x.8.2 + x.8.3 + x.8.4 + x.8.5 + x.8.6 - y.7.8
           + x.8.9 + x.8.10 <= 1
 _e50#160: x.9.0 + x.9.1 + x.9.2 + x.9.3 + x.9.4 + x.9.5 + x.9.6 - y.7.9
           + x.9.8 + x.9.10 <= 1
 _e51#161: x.10.0 + x.10.1 + x.10.2 + x.10.3 + x.10.4 + x.10.5 + x.10.6
           - y.7.10 + x.10.8 + x.10.9 <= 0
 _e52#162: x.9.0 + x.9.1 + x.9.2 + x.9.3 + x.9.4 + x.9.5 + x.9.6 + x.9.7
           - y.8.9 + x.9.10 <= 1
 _e53#163: x.10.0 + x.10.1 + x.10.2 + x.10.3 + x.10.4 + x.10.5 + x.10.6
           + x.10.7 - y.8.10 + x.10.9 <= 0
 _e54#164: x.10.0 + x.10.1 + x.10.2 + x.10.3 + x.10.4 + x.10.5 + x.10.6
           + x.10.7 + x.10.8 - y.9.10 <= 0
End
